sat
( (x_init 1)
  (y_init 0)
  (z_init 1)
  (c_0 (- 1))
  (c_1 1)
  (c_2 0)
  (c_3 1)
  (c_4 (- 1))
  (c_5 1)
  (c_6 (- 1))
  (c_7 1)
  (c_8 0)
  (c_9 1)
  (c_10 1)
  (c_11 (- 1))
  (c_12 0)
  (c_13 (- 1))
  (c_14 0)
  (c_15 1) )
